% File represents an instance of a Composite Structure problem to be solved by a CP framework
% Created on 2025-03-26 10:41:24.417
T = 56;
n = 16;
m = 24;
edges = [(2, 1),
(5, 6),
(9, 10),
(13, 14),
(2, 3),
(6, 7),
(10, 11),
(14, 15),
(3, 4),
(7, 8),
(11, 12),
(15, 16),
(5, 1),
(9, 5),
(13, 9),
(6, 2),
(10, 6),
(14, 10),
(7, 3),
(11, 7),
(15, 11),
(8, 4),
(12, 8),
(16, 12)];
counts = [|16, 10, 16, 2,
|16, 12, 16, 2,
|14, 10, 14, 2,
|12, 8, 12, 2,
|16, 14, 16, 4,
|16, 14, 16, 2,
|14, 12, 14, 2,
|12, 10, 12, 2,
|16, 18, 16, 4,
|16, 18, 16, 2,
|16, 12, 16, 2,
|14, 12, 14, 2,
|16, 20, 16, 4,
|16, 18, 16, 4,
|16, 18, 16, 2,
|14, 18, 14, 2|];
